sat
(model
(define-fun |label_order(nWeight(1),1)| () Bool true)
(define-fun |required(ezcsp__eq(nWeight(1),73))| () Bool false)
(define-fun |leaf(8)| () Bool true)
(define-fun |required(ezcsp__eq(nWeight(3),143))| () Bool false)
(define-fun |required(ezcsp__gt(nWeight(4),ezcsp__mn(ezcsp__pl(16,54),16)))| () Bool false)
(define-fun |required(ezcsp__eq(nWeight(7),ezcsp__pl(nWeight(6),47)))| () Bool false)
(define-fun |required(ezcsp__eq(nWeight(5),ezcsp__pl(nWeight(4),6)))| () Bool false)
(define-fun |leafPos(3,3)| () Bool false)
(define-fun 166 () Bool true)
(define-fun |required(ezcsp__eq(nWeight(2),175))| () Bool false)
(define-fun |required(ezcsp__gt(nWeight(6),ezcsp__mn(ezcsp__pl(96,50),50)))| () Bool false)
(define-fun |posColor(4,green)| () Bool true)
(define-fun |required(ezcsp__gt(nWeight(6),ezcsp__mn(ezcsp__pl(6,66),6)))| () Bool false)
(define-fun |required(ezcsp__leq(nWeight(4),ezcsp__mn(ezcsp__pl(91,84),84)))| () Bool true)
(define-fun |required(ezcsp__eq(nWeight(6),ezcsp__pl(nWeight(5),50)))| () Bool false)
(define-fun |leafCost(4,24)| () Bool true)
(define-fun |cspvar(nWeight(4),0,641)| () Bool true)
(define-fun |required(ezcsp__eq(nWeight(1),70))| () Bool false)
(define-fun |required(ezcsp__eq(nWeight(7),ezcsp__pl(nWeight(6),50)))| () Bool false)
(define-fun |required(ezcsp__eq(nWeight(7),ezcsp__pl(nWeight(6),57)))| () Bool true)
(define-fun |required(ezcsp__eq(nWeight(1),37))| () Bool false)
(define-fun |posColor(3,green)| () Bool false)
(define-fun |required(ezcsp__gt(nWeight(5),ezcsp__mn(ezcsp__pl(99,57),57)))| () Bool false)
(define-fun |location(4)| () Bool true)
(define-fun |required(ezcsp__eq(nWeight(5),ezcsp__pl(nWeight(4),84)))| () Bool true)
(define-fun |posColor(3,blue)| () Bool true)
(define-fun |required(ezcsp__eq(nWeight(1),127))| () Bool false)
(define-fun |leafPos(1,7)| () Bool false)
(define-fun |required(ezcsp__eq(nWeight(1),102))| () Bool false)
(define-fun |required(ezcsp__eq(nWeight(1),148))| () Bool false)
(define-fun |required(ezcsp__leq(nWeight(5),ezcsp__mn(ezcsp__pl(91,84),84)))| () Bool false)
(define-fun |required(ezcsp__leq(nWeight(6),ezcsp__mn(ezcsp__pl(6,66),6)))| () Bool false)
(define-fun |posColor(1,red)| () Bool true)
(define-fun |posColor(3,red)| () Bool false)
(define-fun |required(ezcsp__leq(nWeight(2),ezcsp__mn(ezcsp__pl(32,31),31)))| () Bool false)
(define-fun |required(ezcsp__leq(nWeight(2),ezcsp__mn(ezcsp__pl(91,84),84)))| () Bool false)
(define-fun |posColor(7,green)| () Bool false)
(define-fun |required(ezcsp__eq(nWeight(1),120))| () Bool false)
(define-fun |required(ezcsp__eq(nWeight(3),156))| () Bool false)
(define-fun |required(ezcsp__gt(nWeight(2),ezcsp__mn(ezcsp__pl(32,31),31)))| () Bool false)
(define-fun |leafWeightCardinality(5,6,66)| () Bool true)
(define-fun |required(ezcsp__eq(nWeight(1),143))| () Bool false)
(define-fun |required(ezcsp__eq(nWeight(1),78))| () Bool false)
(define-fun |leafPos(5,7)| () Bool false)
(define-fun |leafPos(5,0)| () Bool false)
(define-fun |required(ezcsp__eq(nWeight(4),ezcsp__pl(nWeight(3),16)))| () Bool false)
(define-fun |leafPos(4,3)| () Bool false)
(define-fun |leafPos(6,3)| () Bool false)
(define-fun |required(ezcsp__gt(nWeight(3),ezcsp__mn(ezcsp__pl(47,96),47)))| () Bool false)
(define-fun |leafPos(8,6)| () Bool false)
(define-fun 449 () Bool true)
(define-fun 448 () Bool false)
(define-fun |innerNode(3)| () Bool true)
(define-fun 443 () Bool false)
(define-fun 442 () Bool false)
(define-fun 441 () Bool false)
(define-fun 440 () Bool false)
(define-fun 447 () Bool false)
(define-fun 446 () Bool false)
(define-fun 445 () Bool false)
(define-fun |leafPos(7,3)| () Bool false)
(define-fun |leafPos(2,7)| () Bool true)
(define-fun 108 () Bool true)
(define-fun 109 () Bool true)
(define-fun |required(ezcsp__eq(nWeight(5),146))| () Bool false)
(define-fun |required(ezcsp__gt(nWeight(3),ezcsp__mn(ezcsp__pl(16,54),16)))| () Bool true)
(define-fun |required(ezcsp__leq(nWeight(6),ezcsp__mn(ezcsp__pl(99,57),57)))| () Bool true)
(define-fun |required(ezcsp__eq(nWeight(7),143))| () Bool false)
(define-fun |leafPos(6,4)| () Bool false)
(define-fun |required(ezcsp__leq(nWeight(1),ezcsp__mn(ezcsp__pl(99,57),57)))| () Bool false)
(define-fun |leafPos(4,5)| () Bool false)
(define-fun 438 () Bool false)
(define-fun 439 () Bool false)
(define-fun 436 () Bool false)
(define-fun 437 () Bool false)
(define-fun 434 () Bool false)
(define-fun 435 () Bool false)
(define-fun 432 () Bool false)
(define-fun 433 () Bool false)
(define-fun 430 () Bool false)
(define-fun 431 () Bool false)
(define-fun |innerNode(7)| () Bool true)
(define-fun |leafPos(2,0)| () Bool false)
(define-fun |required(ezcsp__eq(nWeight(4),ezcsp__pl(nWeight(3),84)))| () Bool false)
(define-fun |required(ezcsp__eq(nWeight(1),72))| () Bool false)
(define-fun |required(ezcsp__eq(nWeight(2),156))| () Bool false)
(define-fun |required(ezcsp__gt(nWeight(5),ezcsp__mn(ezcsp__pl(96,50),50)))| () Bool false)
(define-fun |posColor(6,green)| () Bool true)
(define-fun |required(ezcsp__eq(nWeight(1),94))| () Bool false)
(define-fun |leaf(3)| () Bool true)
(define-fun |required(ezcsp__eq(nWeight(5),ezcsp__pl(nWeight(4),47)))| () Bool false)
(define-fun |required(ezcsp__eq(nWeight(7),118))| () Bool false)
(define-fun |posColor(6,red)| () Bool false)
(define-fun |required(ezcsp__eq(nWeight(1),131))| () Bool false)
(define-fun |color(red)| () Bool true)
(define-fun 99 () Bool true)
(define-fun 98 () Bool true)
(define-fun |required(ezcsp__eq(nWeight(2),70))| () Bool false)
(define-fun |required(ezcsp__eq(nWeight(3),72))| () Bool false)
(define-fun |leafPos(1,2)| () Bool false)
(define-fun |required(ezcsp__eq(nWeight(7),70))| () Bool false)
(define-fun |leafPos(3,7)| () Bool false)
(define-fun |required(ezcsp__eq(nWeight(4),143))| () Bool false)
(define-fun |required(ezcsp__gt(nWeight(2),ezcsp__mn(ezcsp__pl(99,57),57)))| () Bool false)
(define-fun |leafCost(8,50)| () Bool true)
(define-fun |posColor(7,blue)| () Bool true)
(define-fun |required(ezcsp__leq(nWeight(3),ezcsp__mn(ezcsp__pl(47,96),47)))| () Bool false)
(define-fun |required(ezcsp__gt(nWeight(5),ezcsp__mn(ezcsp__pl(32,31),31)))| () Bool true)
(define-fun |location(0)| () Bool true)
(define-fun |required(ezcsp__eq(nWeight(1),112))| () Bool false)
(define-fun |required(ezcsp__leq(nWeight(5),ezcsp__mn(ezcsp__pl(96,50),50)))| () Bool false)
(define-fun |required(ezcsp__leq(nWeight(4),ezcsp__mn(ezcsp__pl(32,31),31)))| () Bool false)
(define-fun 146 () Bool true)
(define-fun 147 () Bool true)
(define-fun |cspvar(nWeight(1),0,641)| () Bool true)
(define-fun |required(ezcsp__eq(nWeight(1),55))| () Bool false)
(define-fun |required(ezcsp__eq(nWeight(5),143))| () Bool false)
(define-fun |required(ezcsp__eq(nWeight(5),70))| () Bool false)
(define-fun |required(ezcsp__leq(nWeight(1),ezcsp__mn(ezcsp__pl(91,84),84)))| () Bool false)
(define-fun |leafPos(5,3)| () Bool false)
(define-fun |leafPos(6,0)| () Bool false)
(define-fun |required(ezcsp__eq(nWeight(2),ezcsp__pl(nWeight(1),6)))| () Bool false)
(define-fun |required(ezcsp__leq(nWeight(6),ezcsp__mn(ezcsp__pl(96,50),50)))| () Bool false)
(define-fun |leafWeightCardinality(1,16,54)| () Bool true)
(define-fun |leafPos(8,3)| () Bool true)
(define-fun |leaf(5)| () Bool true)
(define-fun |leafPos(4,1)| () Bool false)
(define-fun |coloredPos(5)| () Bool true)
(define-fun |posColor(1,green)| () Bool false)
(define-fun |leafPos(7,6)| () Bool false)
(define-fun |required(ezcsp__eq(nWeight(2),118))| () Bool false)
(define-fun |leafPos(2,4)| () Bool false)
(define-fun |coloredPos(2)| () Bool true)
(define-fun |required(ezcsp__leq(nWeight(3),ezcsp__mn(ezcsp__pl(24,94),24)))| () Bool false)
(define-fun |label_order(nWeight(5),1)| () Bool true)
(define-fun 139 () Bool true)
(define-fun 138 () Bool true)
(define-fun |required(ezcsp__gt(nWeight(5),ezcsp__mn(ezcsp__pl(91,84),84)))| () Bool false)
(define-fun |required(ezcsp__eq(nWeight(1),56))| () Bool false)
(define-fun |required(ezcsp__gt(nWeight(5),ezcsp__mn(ezcsp__pl(24,94),24)))| () Bool false)
(define-fun |required(ezcsp__eq(nWeight(1),115))| () Bool false)
(define-fun |required(ezcsp__gt(nWeight(6),ezcsp__mn(ezcsp__pl(91,84),84)))| () Bool false)
(define-fun |leafPos(4,6)| () Bool false)
(define-fun |leafPos(7,2)| () Bool true)
(define-fun |required(ezcsp__eq(nWeight(1),74))| () Bool false)
(define-fun |posColor(2,green)| () Bool false)
(define-fun |required(ezcsp__gt(nWeight(1),ezcsp__mn(ezcsp__pl(6,66),6)))| () Bool false)
(define-fun |required(ezcsp__leq(nWeight(6),ezcsp__mn(ezcsp__pl(32,31),31)))| () Bool false)
(define-fun |required(ezcsp__gt(nWeight(5),ezcsp__mn(ezcsp__pl(16,54),16)))| () Bool false)
(define-fun |posColor(5,green)| () Bool false)
(define-fun |required(ezcsp__eq(nWeight(1),180))| () Bool false)
(define-fun |required(ezcsp__gt(nWeight(3),ezcsp__mn(ezcsp__pl(6,66),6)))| () Bool false)
(define-fun |required(ezcsp__eq(nWeight(4),146))| () Bool false)
(define-fun |required(ezcsp__eq(nWeight(3),70))| () Bool false)
(define-fun |max_total_weight(641)| () Bool true)
(define-fun |leafCost(5,6)| () Bool true)
(define-fun |posColor(7,red)| () Bool false)
(define-fun |required(ezcsp__sum(list(nWeight,1),ezcsp__leq,641))| () Bool true)
(define-fun |required(ezcsp__eq(nWeight(2),146))| () Bool false)
(define-fun |required(ezcsp__eq(nWeight(1),183))| () Bool false)
(define-fun |leafCost(2,57)| () Bool true)
(define-fun |required(ezcsp__gt(nWeight(2),ezcsp__mn(ezcsp__pl(6,66),6)))| () Bool false)
(define-fun 88 () Bool true)
(define-fun 89 () Bool true)
(define-fun |location(7)| () Bool true)
(define-fun |required(ezcsp__gt(nWeight(6),ezcsp__mn(ezcsp__pl(16,54),16)))| () Bool false)
(define-fun |required(ezcsp__eq(nWeight(1),30))| () Bool true)
(define-fun |leafPos(1,6)| () Bool false)
(define-fun |leafPos(3,2)| () Bool false)
(define-fun |required(ezcsp__gt(nWeight(3),ezcsp__mn(ezcsp__pl(99,57),57)))| () Bool false)
(define-fun 171 () Bool true)
(define-fun |required(ezcsp__eq(nWeight(4),70))| () Bool true)
(define-fun |required(ezcsp__eq(nWeight(6),175))| () Bool false)
(define-fun |required(ezcsp__eq(nWeight(7),ezcsp__pl(nWeight(6),84)))| () Bool false)
(define-fun |required(ezcsp__eq(nWeight(4),118))| () Bool false)
(define-fun |required(ezcsp__eq(nWeight(4),ezcsp__pl(nWeight(3),24)))| () Bool false)
(define-fun |required(ezcsp__eq(nWeight(1),105))| () Bool false)
(define-fun |label_order(nWeight(7),1)| () Bool true)
(define-fun |required(ezcsp__gt(nWeight(3),ezcsp__mn(ezcsp__pl(32,31),31)))| () Bool false)
(define-fun |required(ezcsp__gt(nWeight(4),ezcsp__mn(ezcsp__pl(24,94),24)))| () Bool false)
(define-fun |required(ezcsp__eq(nWeight(1),118))| () Bool false)
(define-fun |leafPos(5,6)| () Bool false)
(define-fun |required(ezcsp__eq(nWeight(1),53))| () Bool false)
(define-fun |required(ezcsp__gt(nWeight(1),ezcsp__mn(ezcsp__pl(99,57),57)))| () Bool false)
(define-fun |required(ezcsp__eq(nWeight(5),ezcsp__pl(nWeight(4),16)))| () Bool false)
(define-fun |required(ezcsp__eq(nWeight(5),72))| () Bool false)
(define-fun |leafPos(8,7)| () Bool false)
(define-fun 458 () Bool false)
(define-fun 459 () Bool false)
(define-fun |required(ezcsp__leq(nWeight(2),ezcsp__mn(ezcsp__pl(99,57),57)))| () Bool false)
(define-fun 450 () Bool false)
(define-fun 451 () Bool false)
(define-fun 452 () Bool false)
(define-fun 453 () Bool false)
(define-fun 454 () Bool false)
(define-fun 455 () Bool false)
(define-fun 456 () Bool false)
(define-fun 457 () Bool false)
(define-fun |required(ezcsp__eq(nWeight(3),175))| () Bool false)
(define-fun 172 () Bool true)
(define-fun |required(ezcsp__eq(nWeight(1),71))| () Bool false)
(define-fun |required(ezcsp__eq(nWeight(1),146))| () Bool false)
(define-fun |required(ezcsp__leq(nWeight(6),ezcsp__mn(ezcsp__pl(47,96),47)))| () Bool false)
(define-fun |required(ezcsp__eq(nWeight(7),63))| () Bool false)
(define-fun |leafPos(6,5)| () Bool true)
(define-fun |required(ezcsp__eq(nWeight(1),90))| () Bool false)
(define-fun |required(ezcsp__leq(nWeight(3),ezcsp__mn(ezcsp__pl(6,66),6)))| () Bool false)
(define-fun |leafPos(4,2)| () Bool false)
(define-fun |required(ezcsp__gt(nWeight(4),ezcsp__mn(ezcsp__pl(96,50),50)))| () Bool false)
(define-fun |required(ezcsp__eq(nWeight(1),97))| () Bool false)
(define-fun |required(ezcsp__eq(nWeight(6),ezcsp__pl(nWeight(5),84)))| () Bool false)
(define-fun |required(ezcsp__eq(nWeight(2),ezcsp__pl(nWeight(1),31)))| () Bool false)
(define-fun |required(ezcsp__eq(nWeight(6),70))| () Bool false)
(define-fun |coloredPos(7)| () Bool true)
(define-fun |leafPos(2,1)| () Bool false)
(define-fun |required(ezcsp__eq(nWeight(7),175))| () Bool false)
(define-fun |required(ezcsp__eq(nWeight(4),175))| () Bool false)
(define-fun |required(ezcsp__leq(nWeight(1),ezcsp__mn(ezcsp__pl(96,50),50)))| () Bool false)
(define-fun |required(ezcsp__eq(nWeight(1),32))| () Bool false)
(define-fun |required(ezcsp__eq(nWeight(1),38))| () Bool false)
(define-fun |leaf(4)| () Bool true)
(define-fun |leafWeightCardinality(4,24,94)| () Bool true)
(define-fun |required(ezcsp__gt(nWeight(6),ezcsp__mn(ezcsp__pl(99,57),57)))| () Bool false)
(define-fun |leafPos(7,5)| () Bool false)
(define-fun |required(ezcsp__gt(nWeight(1),ezcsp__mn(ezcsp__pl(91,84),84)))| () Bool false)
(define-fun |required(ezcsp__eq(nWeight(1),89))| () Bool false)
(define-fun |required(ezcsp__eq(nWeight(1),149))| () Bool false)
(define-fun |required(ezcsp__leq(nWeight(1),ezcsp__mn(ezcsp__pl(16,54),16)))| () Bool false)
(define-fun |required(ezcsp__gt(nWeight(6),ezcsp__mn(ezcsp__pl(24,94),24)))| () Bool false)
(define-fun |leafWeightCardinality(8,96,50)| () Bool true)
(define-fun |leafCost(6,84)| () Bool true)
(define-fun |leafPos(1,1)| () Bool false)
(define-fun |leafPos(3,1)| () Bool false)
(define-fun |leafPos(3,6)| () Bool true)
(define-fun |required(ezcsp__eq(nWeight(1),141))| () Bool false)
(define-fun |required(ezcsp__eq(nWeight(1),79))| () Bool false)
(define-fun |required(ezcsp__leq(nWeight(3),ezcsp__mn(ezcsp__pl(91,84),84)))| () Bool false)
(define-fun |required(ezcsp__eq(nWeight(1),153))| () Bool false)
(define-fun |required(ezcsp__eq(nWeight(5),ezcsp__pl(nWeight(4),57)))| () Bool false)
(define-fun |posColor(6,blue)| () Bool false)
(define-fun |leafWeightCardinality(6,91,84)| () Bool true)
(define-fun |required(ezcsp__eq(nWeight(1),81))| () Bool false)
(define-fun |required(ezcsp__eq(nWeight(6),72))| () Bool false)
(define-fun 78 () Bool true)
(define-fun |required(ezcsp__eq(nWeight(1),82))| () Bool false)
(define-fun |required(ezcsp__eq(nWeight(3),63))| () Bool false)
(define-fun |required(ezcsp__eq(nWeight(6),ezcsp__pl(nWeight(5),31)))| () Bool false)
(define-fun |required(ezcsp__eq(nWeight(1),12))| () Bool false)
(define-fun |location(3)| () Bool true)
(define-fun |required(ezcsp__eq(nWeight(5),ezcsp__pl(nWeight(4),24)))| () Bool false)
(define-fun |required(ezcsp__eq(nWeight(3),ezcsp__pl(nWeight(2),50)))| () Bool true)
(define-fun |required(ezcsp__eq(nWeight(3),ezcsp__pl(nWeight(2),31)))| () Bool false)
(define-fun |required(ezcsp__gt(nWeight(1),ezcsp__mn(ezcsp__pl(47,96),47)))| () Bool false)
(define-fun |posColor(5,blue)| () Bool true)
(define-fun |required(ezcsp__leq(nWeight(1),ezcsp__mn(ezcsp__pl(32,31),31)))| () Bool false)
(define-fun |required(ezcsp__eq(nWeight(1),63))| () Bool false)
(define-fun |posColor(2,blue)| () Bool false)
(define-fun |cspvar(nWeight(5),0,641)| () Bool true)
(define-fun |required(ezcsp__eq(nWeight(3),ezcsp__pl(nWeight(2),6)))| () Bool false)
(define-fun |required(ezcsp__gt(nWeight(3),ezcsp__mn(ezcsp__pl(96,50),50)))| () Bool false)
(define-fun |required(ezcsp__eq(nWeight(1),130))| () Bool false)
(define-fun |leafPos(5,2)| () Bool false)
(define-fun |leafPos(6,1)| () Bool false)
(define-fun |required(ezcsp__eq(nWeight(2),ezcsp__pl(nWeight(1),24)))| () Bool false)
(define-fun |leafPos(8,0)| () Bool false)
(define-fun |required(ezcsp__eq(nWeight(1),116))| () Bool false)
(define-fun |leafPos(7,1)| () Bool false)
(define-fun |coloredPos(3)| () Bool true)
(define-fun |leafPos(2,5)| () Bool false)
(define-fun |required(ezcsp__eq(nWeight(6),143))| () Bool false)
(define-fun |required(ezcsp__eq(nWeight(1),175))| () Bool false)
(define-fun |leaf(1)| () Bool true)
(define-fun 128 () Bool true)
(define-fun 129 () Bool true)
(define-fun |required(ezcsp__eq(nWeight(3),ezcsp__pl(nWeight(2),84)))| () Bool false)
(define-fun |required(ezcsp__leq(nWeight(1),ezcsp__mn(ezcsp__pl(24,94),24)))| () Bool false)
(define-fun |required(ezcsp__eq(nWeight(4),63))| () Bool false)
(define-fun |label_order(nWeight(4),1)| () Bool true)
(define-fun |leafPos(4,7)| () Bool false)
(define-fun |required(ezcsp__eq(nWeight(6),ezcsp__pl(nWeight(5),47)))| () Bool false)
(define-fun |color(blue)| () Bool true)
(define-fun |required(ezcsp__gt(nWeight(5),ezcsp__mn(ezcsp__pl(6,66),6)))| () Bool false)
(define-fun |required(ezcsp__gt(nWeight(2),ezcsp__mn(ezcsp__pl(96,50),50)))| () Bool false)
(define-fun |required(ezcsp__gt(nWeight(5),ezcsp__mn(ezcsp__pl(47,96),47)))| () Bool false)
(define-fun |required(ezcsp__leq(nWeight(2),ezcsp__mn(ezcsp__pl(24,94),24)))| () Bool false)
(define-fun |cspvar(nWeight(3),0,641)| () Bool true)
(define-fun |required(ezcsp__eq(nWeight(4),156))| () Bool false)
(define-fun |required(ezcsp__gt(nWeight(4),ezcsp__mn(ezcsp__pl(91,84),84)))| () Bool false)
(define-fun |label_order(nWeight(2),1)| () Bool true)
(define-fun |cspvar(nWeight(6),0,641)| () Bool true)
(define-fun |required(ezcsp__leq(nWeight(5),ezcsp__mn(ezcsp__pl(47,96),47)))| () Bool false)
(define-fun |posColor(5,red)| () Bool false)
(define-fun |required(ezcsp__leq(nWeight(6),ezcsp__mn(ezcsp__pl(91,84),84)))| () Bool false)
(define-fun |required(ezcsp__eq(nWeight(1),138))| () Bool false)
(define-fun |coloredPos(4)| () Bool true)
(define-fun |innerNode(5)| () Bool true)
(define-fun |required(ezcsp__eq(nWeight(1),156))| () Bool false)
(define-fun |required(ezcsp__leq(nWeight(3),ezcsp__mn(ezcsp__pl(99,57),57)))| () Bool false)
(define-fun |required(ezcsp__leq(nWeight(4),ezcsp__mn(ezcsp__pl(6,66),6)))| () Bool false)
(define-fun |color(green)| () Bool true)
(define-fun |leaf(7)| () Bool true)
(define-fun 444 () Bool false)
(define-fun |required(ezcsp__eq(nWeight(4),ezcsp__pl(nWeight(3),31)))| () Bool false)
(define-fun |required(ezcsp__leq(nWeight(2),ezcsp__mn(ezcsp__pl(6,66),6)))| () Bool false)
(define-fun |required(ezcsp__leq(nWeight(5),ezcsp__mn(ezcsp__pl(24,94),24)))| () Bool false)
(define-fun |leafPos(1,5)| () Bool false)
(define-fun |required(ezcsp__leq(nWeight(3),ezcsp__mn(ezcsp__pl(32,31),31)))| () Bool false)
(define-fun |required(ezcsp__eq(nWeight(1),66))| () Bool false)
(define-fun |required(ezcsp__eq(nWeight(3),118))| () Bool false)
(define-fun |required(ezcsp__leq(nWeight(2),ezcsp__mn(ezcsp__pl(96,50),50)))| () Bool true)
(define-fun |leafPos(8,4)| () Bool false)
(define-fun |required(ezcsp__eq(nWeight(6),63))| () Bool true)
(define-fun 67 () Bool true)
(define-fun 68 () Bool true)
(define-fun 69 () Bool false)
(define-fun |leafPos(5,5)| () Bool false)
(define-fun |required(ezcsp__gt(nWeight(4),ezcsp__mn(ezcsp__pl(47,96),47)))| () Bool false)
(define-fun |location(6)| () Bool true)
(define-fun |required(ezcsp__eq(nWeight(3),ezcsp__pl(nWeight(2),47)))| () Bool false)
(define-fun |required(ezcsp__leq(nWeight(5),ezcsp__mn(ezcsp__pl(16,54),16)))| () Bool false)
(define-fun 469 () Bool false)
(define-fun |required(ezcsp__eq(nWeight(7),156))| () Bool false)
(define-fun |required(ezcsp__gt(nWeight(3),ezcsp__mn(ezcsp__pl(91,84),84)))| () Bool false)
(define-fun |leafPos(3,5)| () Bool false)
(define-fun 465 () Bool false)
(define-fun 464 () Bool false)
(define-fun 467 () Bool false)
(define-fun 466 () Bool false)
(define-fun 461 () Bool false)
(define-fun 460 () Bool false)
(define-fun 463 () Bool false)
(define-fun 462 () Bool false)
(define-fun |required(ezcsp__eq(nWeight(1),104))| () Bool false)
(define-fun 167 () Bool true)
(define-fun 161 () Bool true)
(define-fun 162 () Bool true)
(define-fun |required(ezcsp__eq(nWeight(1),107))| () Bool false)
(define-fun |leafPos(6,6)| () Bool false)
(define-fun |required(ezcsp__gt(nWeight(3),ezcsp__mn(ezcsp__pl(24,94),24)))| () Bool false)
(define-fun |required(ezcsp__eq(nWeight(1),48))| () Bool false)
(define-fun |required(ezcsp__leq(nWeight(5),ezcsp__mn(ezcsp__pl(99,57),57)))| () Bool false)
(define-fun |required(ezcsp__eq(nWeight(3),ezcsp__pl(nWeight(2),57)))| () Bool false)
(define-fun |required(ezcsp__eq(nWeight(1),40))| () Bool false)
(define-fun |innerNode(1)| () Bool true)
(define-fun |leafPos(2,2)| () Bool false)
(define-fun |required(ezcsp__eq(nWeight(2),63))| () Bool false)
(define-fun |required(ezcsp__eq(nWeight(5),63))| () Bool false)
(define-fun |required(ezcsp__eq(nWeight(6),146))| () Bool false)
(define-fun |required(ezcsp__leq(nWeight(3),ezcsp__mn(ezcsp__pl(96,50),50)))| () Bool false)
(define-fun |required(ezcsp__gt(nWeight(1),ezcsp__mn(ezcsp__pl(16,54),16)))| () Bool false)
(define-fun |required(ezcsp__eq(nWeight(6),ezcsp__pl(nWeight(5),24)))| () Bool false)
(define-fun |leafPos(7,4)| () Bool false)
(define-fun |required(ezcsp__gt(nWeight(1),ezcsp__mn(ezcsp__pl(96,50),50)))| () Bool false)
(define-fun |required(ezcsp__gt(nWeight(6),ezcsp__mn(ezcsp__pl(47,96),47)))| () Bool false)
(define-fun |required(ezcsp__eq(nWeight(4),ezcsp__pl(nWeight(3),6)))| () Bool false)
(define-fun |required(ezcsp__leq(nWeight(5),ezcsp__mn(ezcsp__pl(32,31),31)))| () Bool false)
(define-fun |required(ezcsp__leq(nWeight(4),ezcsp__mn(ezcsp__pl(16,54),16)))| () Bool false)
(define-fun |required(ezcsp__eq(nWeight(2),ezcsp__pl(nWeight(1),47)))| () Bool true)
(define-fun |leafPos(3,0)| () Bool false)
(define-fun |required(ezcsp__leq(nWeight(4),ezcsp__mn(ezcsp__pl(47,96),47)))| () Bool false)
(define-fun |required(ezcsp__eq(nWeight(6),ezcsp__pl(nWeight(5),6)))| () Bool false)
(define-fun |num(8)| () Bool true)
(define-fun |required(ezcsp__gt(nWeight(2),ezcsp__mn(ezcsp__pl(24,94),24)))| () Bool false)
(define-fun |required(ezcsp__leq(nWeight(6),ezcsp__mn(ezcsp__pl(24,94),24)))| () Bool false)
(define-fun |posColor(2,red)| () Bool true)
(define-fun |location(5)| () Bool true)
(define-fun |required(ezcsp__eq(nWeight(6),ezcsp__pl(nWeight(5),16)))| () Bool false)
(define-fun |leafWeightCardinality(7,47,96)| () Bool true)
(define-fun |leafPos(1,0)| () Bool false)
(define-fun |location(2)| () Bool true)
(define-fun |required(ezcsp__leq(nWeight(1),ezcsp__mn(ezcsp__pl(47,96),47)))| () Bool true)
(define-fun |required(ezcsp__leq(nWeight(2),ezcsp__mn(ezcsp__pl(16,54),16)))| () Bool false)
(define-fun |label_order(nWeight(6),1)| () Bool true)
(define-fun |required(ezcsp__leq(nWeight(4),ezcsp__mn(ezcsp__pl(99,57),57)))| () Bool false)
(define-fun |cspvar(nWeight(2),0,641)| () Bool true)
(define-fun |required(ezcsp__eq(nWeight(2),ezcsp__pl(nWeight(1),84)))| () Bool false)
(define-fun |posColor(4,red)| () Bool false)
(define-fun |leafPos(5,1)| () Bool true)
(define-fun |required(ezcsp__eq(nWeight(1),123))| () Bool false)
(define-fun |leafPos(6,2)| () Bool false)
(define-fun |leafPos(8,1)| () Bool false)
(define-fun |required(ezcsp__eq(nWeight(2),143))| () Bool false)
(define-fun |leafPos(7,0)| () Bool false)
(define-fun |required(ezcsp__leq(nWeight(4),ezcsp__mn(ezcsp__pl(96,50),50)))| () Bool false)
(define-fun |required(ezcsp__eq(nWeight(2),ezcsp__pl(nWeight(1),57)))| () Bool false)
(define-fun |leafWeightCardinality(2,99,57)| () Bool true)
(define-fun |leaf(2)| () Bool true)
(define-fun |leafCost(1,16)| () Bool true)
(define-fun |leafPos(2,6)| () Bool false)
(define-fun |leafCost(3,31)| () Bool true)
(define-fun 119 () Bool true)
(define-fun 118 () Bool true)
(define-fun |posColor(1,blue)| () Bool false)
(define-fun |required(ezcsp__eq(nWeight(5),156))| () Bool false)
(define-fun |leafPos(4,4)| () Bool false)
(define-fun 429 () Bool false)
(define-fun 428 () Bool false)
(define-fun |posColor(4,blue)| () Bool false)
(define-fun 427 () Bool true)
(define-fun |required(ezcsp__gt(nWeight(4),ezcsp__mn(ezcsp__pl(6,66),6)))| () Bool false)
(define-fun |required(ezcsp__eq(nWeight(7),ezcsp__pl(nWeight(6),31)))| () Bool false)
(define-fun |required(ezcsp__eq(nWeight(7),ezcsp__pl(nWeight(6),16)))| () Bool false)
(define-fun |required(ezcsp__gt(nWeight(2),ezcsp__mn(ezcsp__pl(16,54),16)))| () Bool false)
(define-fun |innerNode(2)| () Bool true)
(define-fun |required(ezcsp__leq(nWeight(1),ezcsp__mn(ezcsp__pl(6,66),6)))| () Bool false)
(define-fun |required(ezcsp__eq(nWeight(1),100))| () Bool false)
(define-fun |innerNode(4)| () Bool true)
(define-fun |required(ezcsp__eq(nWeight(3),ezcsp__pl(nWeight(2),16)))| () Bool false)
(define-fun |required(ezcsp__leq(nWeight(5),ezcsp__mn(ezcsp__pl(6,66),6)))| () Bool false)
(define-fun |required(ezcsp__eq(nWeight(1),108))| () Bool false)
(define-fun |required(ezcsp__eq(nWeight(2),ezcsp__pl(nWeight(1),16)))| () Bool false)
(define-fun |innerNode(6)| () Bool true)
(define-fun |required(ezcsp__gt(nWeight(4),ezcsp__mn(ezcsp__pl(99,57),57)))| () Bool false)
(define-fun |required(ezcsp__gt(nWeight(4),ezcsp__mn(ezcsp__pl(32,31),31)))| () Bool false)
(define-fun |required(ezcsp__eq(nWeight(4),ezcsp__pl(nWeight(3),57)))| () Bool false)
(define-fun |required(ezcsp__eq(nWeight(4),ezcsp__pl(nWeight(3),47)))| () Bool false)
(define-fun |required(ezcsp__eq(nWeight(2),ezcsp__pl(nWeight(1),50)))| () Bool false)
(define-fun |leafPos(1,3)| () Bool false)
(define-fun |leafPos(3,4)| () Bool false)
(define-fun |required(ezcsp__eq(nWeight(5),175))| () Bool false)
(define-fun |leafPos(1,4)| () Bool true)
(define-fun |label_order(nWeight(3),1)| () Bool true)
(define-fun 79 () Bool true)
(define-fun |required(ezcsp__leq(nWeight(2),ezcsp__mn(ezcsp__pl(47,96),47)))| () Bool false)
(define-fun |leafPos(8,5)| () Bool false)
(define-fun |required(ezcsp__leq(nWeight(3),ezcsp__mn(ezcsp__pl(16,54),16)))| () Bool false)
(define-fun |leafCost(7,47)| () Bool true)
(define-fun |required(ezcsp__eq(nWeight(5),118))| () Bool false)
(define-fun |leafWeightCardinality(3,32,31)| () Bool true)
(define-fun |coloredPos(6)| () Bool true)
(define-fun |required(ezcsp__gt(nWeight(1),ezcsp__mn(ezcsp__pl(32,31),31)))| () Bool false)
(define-fun |location(1)| () Bool true)
(define-fun |cspvar(nWeight(7),0,641)| () Bool true)
(define-fun |required(ezcsp__eq(nWeight(6),ezcsp__pl(nWeight(5),57)))| () Bool false)
(define-fun |required(ezcsp__eq(nWeight(1),122))| () Bool false)
(define-fun |required(ezcsp__eq(nWeight(1),22))| () Bool false)
(define-fun 151 () Bool true)
(define-fun 152 () Bool true)
(define-fun 157 () Bool true)
(define-fun 156 () Bool true)
(define-fun |required(ezcsp__eq(nWeight(7),146))| () Bool false)
(define-fun |required(ezcsp__eq(nWeight(6),118))| () Bool false)
(define-fun |required(ezcsp__leq(nWeight(6),ezcsp__mn(ezcsp__pl(16,54),16)))| () Bool false)
(define-fun |required(ezcsp__eq(nWeight(7),72))| () Bool false)
(define-fun 468 () Bool false)
(define-fun |required(ezcsp__eq(nWeight(4),72))| () Bool false)
(define-fun |leafPos(5,4)| () Bool false)
(define-fun |leafPos(6,7)| () Bool false)
(define-fun |leafPos(8,2)| () Bool false)
(define-fun |leafPos(4,0)| () Bool true)
(define-fun |required(ezcsp__eq(nWeight(6),156))| () Bool false)
(define-fun |coloredPos(1)| () Bool true)
(define-fun |required(ezcsp__eq(nWeight(7),ezcsp__pl(nWeight(6),6)))| () Bool false)
(define-fun |required(ezcsp__eq(nWeight(4),ezcsp__pl(nWeight(3),50)))| () Bool false)
(define-fun |leafPos(2,3)| () Bool false)
(define-fun |required(ezcsp__eq(nWeight(7),ezcsp__pl(nWeight(6),24)))| () Bool false)
(define-fun |required(ezcsp__eq(nWeight(1),47))| () Bool false)
(define-fun |required(ezcsp__leq(nWeight(4),ezcsp__mn(ezcsp__pl(24,94),24)))| () Bool false)
(define-fun |required(ezcsp__gt(nWeight(6),ezcsp__mn(ezcsp__pl(32,31),31)))| () Bool false)
(define-fun 483 () Bool false)
(define-fun 482 () Bool false)
(define-fun 481 () Bool false)
(define-fun 480 () Bool false)
(define-fun |leafPos(7,7)| () Bool false)
(define-fun |leaf(6)| () Bool true)
(define-fun |required(ezcsp__eq(nWeight(3),146))| () Bool false)
(define-fun |required(ezcsp__gt(nWeight(1),ezcsp__mn(ezcsp__pl(24,94),24)))| () Bool false)
(define-fun |required(ezcsp__eq(nWeight(2),72))| () Bool false)
(define-fun |required(ezcsp__gt(nWeight(2),ezcsp__mn(ezcsp__pl(47,96),47)))| () Bool false)
(define-fun |required(ezcsp__eq(nWeight(3),ezcsp__pl(nWeight(2),24)))| () Bool false)
(define-fun |required(ezcsp__eq(nWeight(5),ezcsp__pl(nWeight(4),50)))| () Bool false)
(define-fun |required(ezcsp__eq(nWeight(5),ezcsp__pl(nWeight(4),31)))| () Bool false)
(define-fun 472 () Bool false)
(define-fun 473 () Bool false)
(define-fun 470 () Bool false)
(define-fun 471 () Bool false)
(define-fun 476 () Bool false)
(define-fun 477 () Bool false)
(define-fun 474 () Bool false)
(define-fun 475 () Bool false)
(define-fun 478 () Bool false)
(define-fun 479 () Bool true)
(define-fun |required(ezcsp__gt(nWeight(2),ezcsp__mn(ezcsp__pl(91,84),84)))| () Bool false)
(define-fun |nWeight(4)| () Int 70)
(define-fun |nWeight(1)| () Int 30)
(define-fun |nWeight(5)| () Int 154)
(define-fun |nWeight(3)| () Int 127)
(define-fun |nWeight(6)| () Int 63)
(define-fun |nWeight(2)| () Int 77)
(define-fun |nWeight(7)| () Int 120)
)
